Traveling Salesman Problem/TSP_generados/Aleatorio1620395352_17.tsp
NAME: Aleatorio1620395352_17.tsp
COMMENT: Randomly generated scenario
TYPE: TSP
DIMENSION: 17
EDGE_WEIGHT_TYPE: ATT
NODE_COORD_SECTION
1 47.39 0.31
2 38.68 44.82
3 24.4 19.12
4 48.39 4.61
5 11.21 17.51
6 39.33 3.07
7 1.42 1.43
8 48.04 34.17
9 8.03 17.86
10 49.54 27.71
11 5.58 35.41
12 15.65 0.92
13 19.26 16.4
14 43.14 30.72
15 41.1 38.17
16 14.08 37.89
17 49.84 14.48
