Traveling Salesman Problem/TSP_generados/Aleatorio1620395352_17.opt.tour
NAME: Aleatorio1620395352_17.opt.tour
COMMENT: Optimal solution for Aleatorio1620395352_17 (195.52471250179795)
TYPE: TOUR
DIMENSION: 17
TOUR_SECTION
1 4 17 10 8 14 15 2 16 11 5 9 7 12 13 3 6
-1
EOF
